molecule meth {
1 2
C
H  1 CH1
H  1 CH2  2 HCH
H  1 CH3  2 HCH    3  120.0
H  1 CH4  2 HCH    3  240.0

CH1    = 1.099503
CH2    = 1.299503
CH3    = 1.599503
CH4    = 2.099503
HCH    = 109.471209
units angstrom
}
